sat
(:added-eqs                       745
 :arith-eq-adapter                219
 :arith-bound-propagations-lp     9
 :arith-conflicts                 67
 :arith-diseq                     4
 :arith-fixed-eqs                 10
 :arith-gcd-calls                 2
 :arith-grobner-calls             3
 :arith-grobner-conflicts         1
 :arith-horner-calls              1
 :arith-horner-cross-nested-forms 136
 :arith-lower                     133
 :arith-make-feasible             114
 :arith-max-columns               1638
 :arith-max-rows                  646
 :arith-nla-add-bounds            2
 :arith-nla-lemmas                20
 :arith-nla-propagate-bounds      42
 :arith-nla-propagate-eq          701
 :arith-nra-calls                 1
 :arith-offset-eqs                31
 :arith-patches                   2
 :arith-patches-success           1
 :arith-upper                     302
 :binary-propagations             655
 :conflicts                       7
 :decisions                       665
 :del-clause                      13
 :elim-unconstrained              14
 :final-checks                    9
 :max-memory                      143.74
 :memory                          58.31
 :mk-bool-var                     1454
 :mk-clause                       262
 :mk-clause-binary                8041
 :nlsat-conflicts                 101
 :nlsat-decisions                 6
 :nlsat-propagations              3723
 :nlsat-stages                    3380
 :num-allocs                      945658763
 :num-checks                      1
 :propagations                    681
 :rlimit-count                    706578
 :sat-mk-clause-2ary              132847
 :sat-mk-clause-nary              197268
 :sat-mk-var                      94888
 :sls-arith-steps                 12322
 :sls-ddfw-flips                  12941.00
 :sls-ddfw-reinits                1
 :sls-ddfw-shifts                 800.00
 :sls-num-guided-search           2
 :sls-repair-down                 519
 :sls-repair-up                   1091
 :time                            1.28
 :total-time                      1.28)
